p cnf 65 243
1 -2 -3 0
-1 2 -3 0
1 2 3 0
-1 -2 3 0
7 6 0
7 -5 0
-6 5 -7 0
-5 -7 -8 0
5 7 -8 0
-5 7 8 0
5 -7 8 0
9 4 0
9 -8 0
-4 8 -9 0
-3 9 -10 0
3 -9 -10 0
-3 -9 10 0
3 9 10 0
-11 4 0
-11 -1 0
-4 1 11 0
11 -5 -12 0
-11 5 -12 0
11 5 12 0
-11 -5 12 0
13 12 0
13 12 0
-12 -13 0
14 -15 -16 0
-14 15 -16 0
14 15 16 0
-14 -15 16 0
-16 17 -18 0
16 -17 -18 0
-16 -17 18 0
16 17 18 0
-18 -4 -19 0
18 4 -19 0
-18 4 19 0
18 -4 19 0
20 13 0
20 19 0
-13 -19 -20 0
-21 -20 0
-21 -19 0
20 19 21 0
-22 10 0
-22 -21 0
-10 21 22 0
23 9 0
23 4 0
-9 -4 -23 0
14 -23 -24 0
-14 23 -24 0
14 23 24 0
-14 -23 24 0
-3 16 -25 0
3 -16 -25 0
-3 -16 25 0
3 16 25 0
26 11 0
26 5 0
-11 -5 -26 0
-27 2 0
-27 -26 0
-2 26 27 0
28 -27 0
28 -9 0
27 9 -28 0
28 -14 -29 0
-28 14 -29 0
28 14 29 0
-28 -14 29 0
-30 -25 0
-30 29 0
25 -29 30 0
31 24 0
31 -30 0
-24 30 -31 0
-32 16 0
-32 -9 0
-16 9 32 0
33 -32 0
33 2 0
32 -2 -33 0
34 -31 0
34 33 0
31 -33 -34 0
35 -22 0
35 -34 0
22 34 -35 0
36 -18 0
36 6 0
18 -6 -36 0
4 -18 -37 0
-4 18 -37 0
4 18 37 0
-4 -18 37 0
36 -37 -38 0
-36 37 -38 0
36 37 38 0
-36 -37 38 0
-11 27 -39 0
11 -27 -39 0
-11 -27 39 0
11 27 39 0
-38 -39 -40 0
38 39 -40 0
-38 39 40 0
38 -39 40 0
-41 -35 0
-41 40 0
35 -40 41 0
26 -18 -42 0
-26 18 -42 0
26 18 42 0
-26 -18 42 0
-6 -15 -43 0
6 15 -43 0
-6 15 43 0
6 -15 43 0
44 -42 0
44 43 0
42 -43 -44 0
46 45 0
46 14 0
-45 -14 -46 0
-47 -4 0
-47 -15 0
4 15 47 0
48 26 0
48 -47 0
-26 47 -48 0
49 46 0
49 48 0
-46 -48 -49 0
-7 -15 -50 0
7 15 -50 0
-7 15 50 0
7 -15 50 0
51 12 0
51 17 0
-12 -17 -51 0
52 -5 0
52 -8 0
5 8 -52 0
-53 -26 0
-53 16 0
26 -16 53 0
-54 52 0
-54 53 0
-52 -53 54 0
-55 -54 0
-55 29 0
54 -29 55 0
-56 -16 0
-56 2 0
16 -2 56 0
-55 56 -57 0
55 -56 -57 0
-55 -56 57 0
55 56 57 0
58 -51 0
58 57 0
51 -57 -58 0
-50 -58 -59 0
50 58 -59 0
-50 58 59 0
50 -58 59 0
60 -28 -61 0
-60 28 -61 0
60 28 61 0
-60 -28 61 0
-62 -59 0
-62 61 0
59 -61 62 0
-63 49 0
-63 -62 0
-49 62 63 0
64 44 0
64 -63 0
-44 63 -64 0
-41 64 -65 0
41 -64 -65 0
-41 -64 65 0
41 64 65 0
41 -58 -59 -20 55 0
64 50 0
15 52 -20 -64 48 -17 0
51 -1 -45 0
-22 46 -39 0
12 -54 -41 -60 0
-32 -30 36 -55 0
6 10 21 0
41 -3 0
-11 -22 0
13 -48 54 -27 46 0
-31 5 -22 6 34 23 0
-22 -24 -23 -49 -6 44 0
-30 -17 45 -9 0
17 50 0
-32 -8 12 -14 -16 42 0
-59 -9 54 -5 0
43 52 0
-26 -44 -50 13 47 0
-57 -62 25 -21 58 0
50 -19 -13 18 -61 0
24 -10 20 0
19 -10 0
-52 41 0
4 -39 16 0
56 44 -43 0
-52 -47 53 0
-65 -9 -57 0
-32 56 0
53 58 16 0
-61 56 41 -11 -53 0
40 19 0
-30 -55 0
-56 31 -64 -59 53 47 0
16 26 -5 0
-64 -28 0
10 25 -55 42 0
-63 37 -14 0
42 -54 47 0
24 60 6 0
-37 26 50 0
-39 18 -5 -55 -54 0
43 65 -26 -50 -15 0
34 -37 -65 -8 0
-5 -60 -6 25 10 -62 0
-63 -5 42 53 -39 0
-18 46 0
37 46 33 29 0
3 16 -17 35 -42 0
31 -43 64 -11 0
-51 -37 0
-10 -55 2 0
50 -38 59 3 49 4 0
-3 21 0
-45 -24 23 -38 0
2 -37 0
65 0
